data/processed_heuristic-threshold/instances/1/8/ds_604_courier_1177/pairwise.tsp
NAME: ds_604_courier_1177
TYPE: TSP
COMMENT: nil
DIMENSION: 9
EDGE_WEIGHT_TYPE: EXPLICIT
EDGE_WEIGHT_FORMAT: FULL_MATRIX
EDGE_WEIGHT_SECTION
9999 2477 2352 1655 1458 411 847 1453 1514 
2477 9999 716 903 1019 2856 1636 2022 2279 
2352 716 9999 729 1048 2760 1530 1500 1740 
1655 903 729 9999 352 2056 814 1182 1440 
1458 1019 1048 352 9999 1839 621 1341 1589 
411 2856 2760 2056 1839 9999 1243 1821 1849 
847 1636 1530 814 621 1243 9999 1103 1297 
1453 2022 1500 1182 1341 1821 1103 9999 259 
1514 2279 1740 1440 1589 1849 1297 259 9999 
