data/processed_heuristic-threshold/instances/1/8/ds_604_courier_1177/pairwise.sol
9
0 5 8 7 2 1 3 4 6 
